%Nproc=52
%Mem=240Gb
%chk=temp.S1.chk
#p cam-b3lyp/6-31+G(d,p) nosymm charge force 
td(nstates=12, root=1) density=current

Calculation for S1 with freq for abs spect

0  1
 C         17.47966       16.00153       17.74360
 C         17.27002       16.87982       15.47082
 C         15.96178       17.23977       15.60143
 C         15.29017       17.02523       16.80907
 N         16.07739       16.40359       17.81896
 H         17.79445       17.22525       14.57245
 H         15.35249       17.74253       14.84719
 O         14.16857       17.26731       17.06625
 O         18.15716       15.47329       18.58226
 N         18.01225       16.30712       16.45421
 H         19.04725       16.18528       16.43024
 H         15.59495       16.10840       18.64337
 O         20.22840       16.93121       19.90026
 H         19.46409       16.49858       19.51960
 H         20.91344       16.26278       19.88797
 O         11.21354       15.62095       15.75659
 H         11.92732       16.20088       16.02199
 H         10.91269       15.22159       16.57282
 O         12.82271       19.62765       17.58221
 H         13.33614       18.83760       17.41356
 H         12.40916       19.46853       18.43067
 O         15.75120       11.98940       15.44837
 H         15.13113       11.29741       15.67836
 H         15.20473       12.76031       15.29572
 O         17.28799       17.20629       21.42074
 H         16.92274       18.02549       21.08647
 H         18.22602       17.37793       21.50363
 O         18.09253       19.81052       14.32646
 H         17.63269       20.64825       14.27174
 H         18.57783       19.85650       15.15022
 O         13.50854       16.94016       12.91309
 H         13.12234       17.39497       13.66158
 H         14.33542       17.39599       12.75586
 O         18.85147       18.09415       12.39870
 H         18.52367       18.37757       11.54521
 H         18.71817       18.85038       12.97017
 O         13.06195       15.15107       18.97913
 H         13.27662       14.54058       18.27383
 H         13.83251       15.14234       19.54692
 O         13.88417       14.23035       13.49435
 H         13.54155       15.11646       13.37752
 H         13.66040       13.77740       12.68133
 O         16.08551       17.84217       12.48686
 H         16.37321       18.73048       12.69751
 H         16.89690       17.34325       12.39214
 O         15.38421       15.44725       20.99684
 H         16.15069       15.99151       21.17717
 H         15.07976       15.16786       21.86025
 O         15.67406       18.93898       19.91423
 H         14.78675       18.58501       19.85403
 H         15.56923       19.77282       20.37243
 O         17.84526       19.96211       18.61890
 H         17.39871       20.70092       18.20539
 H         17.13976       19.43342       18.99171
 O         19.75014       14.35664       13.84907
 H         20.45596       13.73654       13.66597
 H         19.33331       14.01861       14.64168
 O         12.66510       18.88193       14.82521
 H         12.79915       19.04206       15.75935
 H         12.76966       19.74137       14.41697
 O         13.60302       13.76324       16.64348
 H         13.64314       14.20711       15.79637
 H         12.85867       13.16636       16.56665
 O         18.61803       13.25485       16.31103
 H         17.69306       13.18033       16.07626
 H         18.63167       13.16583       17.26399
 O         19.52597       19.65100       16.73533
 H         18.96786       19.75006       17.50665
 H         20.41858       19.67745       17.07998
 O         18.46475       12.92997       19.10405
 H         17.75958       12.57728       19.64681
 H         18.28758       13.86965       19.06125
 O         20.63718       17.45461       15.20242
 H         20.28585       18.09144       15.82471
 H         20.75764       17.95124       14.39305
 O         15.15024       11.99070       18.91883
 H         14.88256       11.33226       18.27771
 H         15.14680       12.81491       18.43210
 
       23.10530       19.80124       11.03404       -0.834
       23.64324       19.92158       10.25150        0.417
       23.15314       18.86274       11.21615        0.417
       13.07426       11.19013       20.83682       -0.834
       13.92020       11.63602       20.79458        0.417
       12.47766       11.84170       21.20527        0.417
       20.22576       13.00577        8.59759       -0.834
       20.40243       13.07085        7.65909        0.417
       19.31265       12.72358        8.65091        0.417
       23.56713       21.01188        5.59260       -0.834
       22.70794       21.32180        5.87890        0.417
       24.05676       21.81035        5.39526        0.417
       10.12789       21.42788        8.93680       -0.834
       10.30349       21.48891        7.99782        0.417
        9.29992       20.95118        8.99561        0.417
       16.91466       12.08238       12.76259       -0.834
       16.43134       12.22724       13.57601        0.417
       16.28765       11.64682       12.18520        0.417
       18.25289       12.16438        7.03545       -0.834
       18.00882       13.06622        6.82724        0.417
       18.05676       11.67249        6.23807        0.417
       14.04613       18.71980       29.73156       -0.834
       14.99169       18.82001       29.62151        0.417
       13.70607       19.61434       29.71172        0.417
        3.99133       21.00426       14.42589       -0.834
        3.71287       20.57985       15.23741        0.417
        3.22938       21.51206       14.14694        0.417
       17.89469        6.52656       13.10952       -0.834
       17.81683        7.40489       12.73709        0.417
       18.55773        6.09524       12.57047        0.417
       27.79190       10.85748       23.66527       -0.834
       27.20018       10.22268       23.26138        0.417
       28.66105       10.60988       23.34982        0.417
       27.62662       11.18597       17.64378       -0.834
       28.22118       11.87698       17.93572        0.417
       28.18810       10.41950       17.52760        0.417
       10.50957       26.09048       22.93238       -0.834
       10.25265       26.23981       22.02247        0.417
       11.46613       26.06346       22.91031        0.417
        7.52789       15.44042       23.10627       -0.834
        7.45417       16.34513       23.41007        0.417
        8.44082       15.20524       23.27203        0.417
       20.43135        6.03988        6.33426       -0.834
       19.67262        5.83374        6.88022        0.417
       20.13957        5.86079        5.44039        0.417
        5.04049       16.08197        7.74529       -0.834
        5.19491       15.16082        7.95472        0.417
        4.25577       16.31283        8.24243        0.417
        6.35835        6.81213       13.71837       -0.834
        7.06872        6.94119       14.34683        0.417
        5.58845        7.18700       14.14611        0.417
       25.63731       25.99675       22.48376       -0.834
       26.05202       26.11568       21.62929        0.417
       25.84270       25.09395       22.72663        0.417
        3.49043       22.17245       18.27248       -0.834
        3.76392       21.71527       19.06774        0.417
        3.87699       23.04450       18.35200        0.417
       21.95086        6.51888       23.78802       -0.834
       21.08633        6.19374       24.03926        0.417
       22.38258        5.76578       23.38467        0.417
        8.01042       11.66252       11.53574       -0.834
        8.64570       11.07011       11.93785        0.417
        8.17832       11.59245       10.59599        0.417
       19.76504       24.64193       28.55603       -0.834
       19.55560       24.45604       27.64071        0.417
       20.67469       24.36123       28.65587        0.417
       31.42928       12.70965       13.38086       -0.834
       31.92426       13.52608       13.44914        0.417
       30.51359       12.97675       13.46081        0.417
       11.98767       19.14873        3.40643       -0.834
       11.78746       18.32101        3.84350        0.417
       12.10935       18.91141        2.48714        0.417
       25.29532       12.69311        5.48438       -0.834
       24.93695       12.84854        6.35825        0.417
       24.58400       12.26781        5.00545        0.417
       21.05228        8.35749        4.26919       -0.834
       21.81157        7.78733        4.39011        0.417
       21.12097        9.00138        4.97411        0.417
       22.36737       21.95880       15.46512       -0.834
       21.45013       22.03170       15.20134        0.417
       22.80364       21.56435       14.70992        0.417
        9.72217        4.69121       15.26608       -0.834
        9.84377        3.97358       15.88774        0.417
        9.40802        4.26657       14.46782        0.417
       16.04705        3.41371       18.47794       -0.834
       15.24375        3.87189       18.23095        0.417
       16.52602        4.04287       19.01737        0.417
       11.67569       20.72291       10.99328       -0.834
       10.79515       20.84393       11.34858        0.417
       11.66325       21.18882       10.15721        0.417
        6.86694       10.12508       23.86972       -0.834
        6.81577        9.74534       22.99256        0.417
        6.64151       11.04704       23.74562        0.417
       15.56232        2.06097       21.15239       -0.834
       14.77761        1.52507       21.03724        0.417
       15.93371        2.13470       20.27327        0.417
       15.53704        7.74919       19.24525       -0.834
       16.15146        7.02863       19.38494        0.417
       15.95293        8.29291       18.57619        0.417
        4.66234       24.57236       21.70585       -0.834
        5.24779       24.17666       22.35153        0.417
        4.05467       23.87098       21.47124        0.417
        6.59940       14.61919       26.00762       -0.834
        6.69566       14.97928       25.12597        0.417
        6.82307       15.34570       26.58933        0.417
       17.71759       20.04782       10.78078       -0.834
       17.09155       20.55546       10.26444        0.417
       18.57414       20.38590       10.51953        0.417
        9.64322       13.75211       14.11252       -0.834
        9.26551       14.01133       13.27206        0.417
       10.14017       14.51845       14.39887        0.417
        7.14646       17.17538       10.30371       -0.834
        7.38635       17.51645       11.16532        0.417
        7.98337       17.00157        9.87289        0.417
       11.41077       17.14178       10.65243       -0.834
       11.26075       18.05180       10.39634        0.417
       12.35501       17.08634       10.79929        0.417
       19.56280       14.74656        2.83718       -0.834
       19.40863       13.97358        2.29406        0.417
       18.68702       15.07057        3.04758        0.417
       12.32187       24.28570       13.47481       -0.834
       11.40723       24.50485       13.65268        0.417
       12.74993       25.13155       13.34237        0.417
       29.39831       19.24079       19.59189       -0.834
       28.57961       19.73668       19.58455        0.417
       30.06607       19.87619       19.33379        0.417
       19.27628       23.23379       17.70237       -0.834
       19.03698       23.96385       17.13143        0.417
       18.52822       23.13447       18.29125        0.417
       20.94135       22.12066        6.30572       -0.834
       21.02218       22.51048        7.17620        0.417
       21.03578       22.85811        5.70281        0.417
       21.43057       19.60072       13.61790       -0.834
       22.15673       19.56871       12.99509        0.417
       20.98376       20.42460       13.42344        0.417
        5.38156       12.29123       16.77435       -0.834
        5.29249       13.21133       16.52593        0.417
        5.18211       12.27499       17.71040        0.417
       20.94777       20.92571       29.31118       -0.834
       21.82795       20.84605       29.67886        0.417
       20.91598       21.81355       28.95486        0.417
       20.98817        4.53667        9.06425       -0.834
       21.06855        5.34716        8.56139        0.417
       21.85824        4.14002        9.02085        0.417
       17.72837        3.77259       22.98499       -0.834
       16.88682        4.05788       22.62913        0.417
       17.53395        3.51962       23.88746        0.417
       19.36526       14.02264       28.87333       -0.834
       19.23396       14.84865       29.33883        0.417
       20.17427       13.66627       29.24038        0.417
       27.92862       23.41231       21.30650       -0.834
       27.37307       23.30626       22.07874        0.417
       27.98538       24.35941       21.17993        0.417
        7.59251       26.99017       20.44611       -0.834
        7.90492       26.29030       21.01954        0.417
        8.32465       27.60479       20.39678        0.417
       14.44970       23.61557       16.60548       -0.834
       13.63528       23.12646       16.48834        0.417
       14.61876       24.00880       15.74931        0.417
       14.79184        7.38554       15.72084       -0.834
       13.88552        7.39098       15.41294        0.417
       14.87987        6.55765       16.19316        0.417
       11.08852        8.47015       27.17793       -0.834
       10.33615        8.54423       26.59084        0.417
       11.53171        7.66851       26.90010        0.417
       17.21040       23.84478       19.56096       -0.834
       16.65669       23.07607       19.69781        0.417
       17.83333       23.82424       20.28744        0.417
       25.13872       23.05044        9.06864       -0.834
       25.06808       22.76162        8.15879        0.417
       25.54939       22.31469        9.52278        0.417
       15.96947        8.07655        4.87230       -0.834
       15.48127        7.63070        4.18012        0.417
       16.23805        8.90719        4.47970        0.417
       11.42486       21.41122        6.38209       -0.834
       12.24945       21.15434        6.79475        0.417
       11.66640       21.63827        5.48412        0.417
       18.57415       16.16725       30.61042       -0.834
       18.62119       16.96318       31.14006        0.417
       17.64522       16.07412       30.39915        0.417
       23.95641        8.13102        8.06905       -0.834
       23.98562        8.81376        7.39878        0.417
       23.08182        8.20661        8.45064        0.417
       27.08659        8.95151       13.96805       -0.834
       26.61100        8.16361       14.23122        0.417
       26.77453        9.63103       14.56563        0.417
       15.35136        4.71235        8.52151       -0.834
       14.58813        4.41645        9.01766        0.417
       16.06898        4.69963        9.15483        0.417
       22.36358       13.55034       12.68532       -0.834
       23.00500       13.88601       12.05911        0.417
       22.65306       12.65679       12.86969        0.417
        6.44724       13.54431       12.52669       -0.834
        7.08393       12.89444       12.22916        0.417
        6.09014       13.91699       11.72058        0.417
       14.87812       10.61215       10.74526       -0.834
       14.91031       10.26261        9.85474        0.417
       14.25091       11.33365       10.69735        0.417
        9.01552       20.25726       21.43907       -0.834
        8.96525       20.68899       22.29189        0.417
        8.14469       20.37404       21.05926        0.417
       23.37791       19.33383        7.92531       -0.834
       23.35773       18.44521        7.57007        0.417
       23.40752       19.89998        7.15406        0.417
       18.35407       19.15123       24.86759       -0.834
       17.50617       18.73035       24.72563        0.417
       18.14837       20.08197       24.95496        0.417
       10.45458        9.83822        8.90171       -0.834
       11.11368        9.14982        8.81260        0.417
       10.30545       10.14489        8.00731        0.417
       16.73162        8.72335       22.30823       -0.834
       17.39518        8.42406       21.68666        0.417
       17.09330        8.50760       23.16781        0.417
       23.67218       10.28518       11.91756       -0.834
       23.44152       10.67941       11.07637        0.417
       24.40513        9.70316       11.71690        0.417
       21.20869        5.92401       13.39922       -0.834
       21.19602        4.97046       13.48176        0.417
       20.87211        6.24191       14.23700        0.417
       22.37376       16.45126       28.73623       -0.834
       22.28951       16.81055       29.61944        0.417
       22.05403       17.14749       28.16241        0.417
        9.92324       25.15027       14.31802       -0.834
        9.97780       24.88374       15.23575        0.417
        9.79108       26.09774       14.35074        0.417
       23.47150        9.24133       17.61632       -0.834
       23.09746       10.07639       17.89738        0.417
       23.38404        9.24788       16.66315        0.417
       17.04565       14.69136        6.83240       -0.834
       17.46375       15.54039        6.97584        0.417
       16.20414       14.90344        6.42852        0.417
       15.98433       31.09575       16.61152       -0.834
       16.43067       30.28604       16.36377        0.417
       15.45864       30.85616       17.37472        0.417
       21.52257       13.26492        6.14258       -0.834
       21.80406       14.11849        5.81331        0.417
       21.16300       12.81862        5.37592        0.417
       12.91166       17.66403       20.15481       -0.834
       12.55791       16.83786       19.82536        0.417
       13.30756       17.43703       20.99622        0.417
       26.51006       18.48640       11.57359       -0.834
       26.72113       17.62661       11.20966        0.417
       26.90706       18.48238       12.44457        0.417
       19.77720       20.97801       22.00091       -0.834
       19.90600       20.03461       22.09906        0.417
       20.12065       21.17781       21.13008        0.417
       21.71403       14.81301       24.32046       -0.834
       21.20834       14.07925       24.66989        0.417
       21.49591       15.54883       24.89250        0.417
       25.60421       10.31259       19.58128       -0.834
       26.14052       10.68629       18.88203        0.417
       24.75241       10.15693       19.17330        0.417
        8.62020       21.56529       24.54108       -0.834
        8.47591       20.94934       25.25943        0.417
        9.36923       22.09075       24.82231        0.417
       19.92672       31.08552       18.03678       -0.834
       19.26730       30.42436       18.24719        0.417
       20.64496       30.59100       17.64206        0.417
        9.22221       25.51669       25.43168       -0.834
        9.58770       26.14225       26.05723        0.417
        9.52945       25.82313       24.57850        0.417
       12.36894       28.12768        8.46941       -0.834
       11.42832       28.04144        8.62447        0.417
       12.71064       27.23883        8.56641        0.417
       16.24456       20.15515       28.67987       -0.834
       16.99692       20.41184       29.21307        0.417
       15.98546       20.95823       28.22803        0.417
       11.14935       29.15837       18.49079       -0.834
       10.34336       29.54206       18.83633        0.417
       11.29275       28.37830       19.02666        0.417
       16.24341       15.22903       29.53803       -0.834
       16.47722       14.38287       29.91960        0.417
       15.34085       15.11660       29.23975        0.417
       12.95877        8.56976       19.82985       -0.834
       13.00862        9.49634       20.06480        0.417
       13.87152        8.28697       19.77371        0.417
       11.84816        5.59352       24.36549       -0.834
       12.22710        6.33533       24.83702        0.417
       11.93557        5.82670       23.44125        0.417
       15.87237       12.05090       24.31868       -0.834
       15.88424       12.04802       25.27580        0.417
       15.33920       11.29169       24.08299        0.417
       23.87803       21.04458       13.19687       -0.834
       23.77267       20.75991       12.28908        0.417
       24.75532       20.74935       13.44068        0.417
       15.08493        4.44349       15.93163       -0.834
       15.07226        3.88155       15.15684        0.417
       15.78985        4.08912       16.47360        0.417
       21.76830       14.54404       16.70388       -0.834
       22.49748       13.93359       16.59491        0.417
       21.39260       14.62802       15.82751        0.417
       25.77206       13.09167       18.63575       -0.834
       25.92758       13.94819       19.03375        0.417
       26.64724       12.73352       18.48735        0.417
       24.29989       21.05042       20.12128       -0.834
       24.51664       21.96519       19.94114        0.417
       23.49848       20.89101       19.62272        0.417
        5.64201       13.18457        8.30801       -0.834
        5.38325       13.32693        9.21851        0.417
        5.14964       12.40976        8.03693        0.417
        7.00481        7.75892       10.80985       -0.834
        7.44132        7.87816       11.65334        0.417
        6.10691        8.05446       10.96039        0.417
       22.85347       24.67490       26.14644       -0.834
       22.61356       23.96881       25.54634        0.417
       22.85073       24.26573       27.01177        0.417
        6.88505       18.01253        6.80762       -0.834
        6.14136       17.42993        6.96167        0.417
        7.46125       17.86984        7.55852        0.417
       23.05371        4.24147       18.52037       -0.834
       23.49433        4.39365       19.35639        0.417
       23.34022        3.36798       18.25361        0.417
       24.60068        9.60950       26.48638       -0.834
       23.93081       10.29318       26.49536        0.417
       24.45422        9.11938       27.29543        0.417
       26.44546       10.55937        7.43006       -0.834
       25.65078       10.67250        6.90860        0.417
       27.04308       10.08037        6.85591        0.417
       12.44784       22.04573       16.14973       -0.834
       12.40600       21.72839       15.24764        0.417
       12.37179       21.25626       16.68562        0.417
       18.30758        2.28113       12.74484       -0.834
       17.63129        2.01998       12.11980        0.417
       17.86686        2.26859       13.59446        0.417
       29.45687        9.15457       12.17977       -0.834
       28.93138        8.53061       11.67900        0.417
       28.99521        9.24227       13.01368        0.417
       21.27269        7.45328        8.85275       -0.834
       20.60765        8.00208        8.43711        0.417
       21.43826        7.87422        9.69633        0.417
        9.69650       18.66528       14.41523       -0.834
        9.75492       19.09365       15.26923        0.417
       10.50807       18.16297       14.34268        0.417
       21.32451       25.31753       17.23407       -0.834
       20.85148       25.86896       16.61085        0.417
       20.65310       24.74591       17.60648        0.417
       26.15937        6.29689       13.72478       -0.834
       27.01582        6.09829       13.34625        0.417
       25.79326        5.44209       13.95176        0.417
       13.42138       18.75091        7.56408       -0.834
       14.30424       18.79912        7.19738        0.417
       13.53431       18.30570        8.40388        0.417
        9.19049       10.47243       21.48811       -0.834
        8.37207       10.29896       21.02299        0.417
        9.28884        9.73099       22.08546        0.417
       21.37482        7.16079       20.47547       -0.834
       22.24642        7.34296       20.12423        0.417
       21.53388        6.87057       21.37364        0.417
       17.63321       14.31732       11.51664       -0.834
       17.29103       13.50604       11.89209        0.417
       18.32269       14.58986       12.12210        0.417
       15.25252        5.12079       12.40484       -0.834
       16.16104        5.11731       12.70619        0.417
       15.14206        5.97409       11.98542        0.417
       18.50216       23.96960       10.26845       -0.834
       19.31422       23.79605        9.79235        0.417
       17.82773       23.51029        9.76805        0.417
       11.21731       14.65315        5.91257       -0.834
       11.36883       14.78241        6.84883        0.417
       10.63933       13.89158        5.86590        0.417
       18.67345       22.09903       24.01426       -0.834
       17.74224       21.87764       24.02252        0.417
       18.97999       21.81509       23.15307        0.417
       23.24686       16.59040       20.08290       -0.834
       22.86793       17.00436       19.30748        0.417
       24.17656       16.49718       19.87505        0.417
       13.88113       14.92545        2.88754       -0.834
       13.47451       15.30813        2.11007        0.417
       14.21061       14.07645        2.59279        0.417
        7.72976        6.72470       16.16908       -0.834
        8.06619        7.09126       16.98681        0.417
        8.38135        6.07208       15.91264        0.417
       17.86857       29.42235       18.74681       -0.834
       17.14890       29.89034       19.17024        0.417
       17.44821       28.90993       18.05619        0.417
       13.45181       26.24045       23.23663       -0.834
       13.35956       26.83881       23.97804        0.417
       14.25234       26.52572       22.79618        0.417
       17.82369       27.41325        9.44229       -0.834
       18.53790       26.90348        9.82474        0.417
       17.82030       27.16547        8.51772        0.417
        8.42907       16.48354       15.64226       -0.834
        9.24929       16.14705       15.28136        0.417
        8.51490       17.43526       15.58648        0.417
       23.42887       16.94441        6.39418       -0.834
       22.60995       16.46587        6.26534        0.417
       24.09858       16.38386        6.00237        0.417
       23.81647       27.11097       15.56024       -0.834
       24.19756       27.98517       15.64253        0.417
       22.99416       27.25086       15.09070        0.417
        5.47699       12.09687       19.53853       -0.834
        6.22620       12.35980       20.07312        0.417
        4.71356       12.40241       20.02849        0.417
       27.27091        6.97885       21.77270       -0.834
       26.76411        7.78271       21.65784        0.417
       27.25470        6.81766       22.71610        0.417
       13.38125       26.72702       12.97987       -0.834
       13.48118       26.52759       12.04903        0.417
       13.90050       27.52013       13.11248        0.417
        9.40053       20.16716        4.87584       -0.834
       10.19908       20.63556        5.11904        0.417
        8.69530       20.66314        5.29163        0.417
        2.66741       14.46813       19.34643       -0.834
        3.15879       13.96833       19.99833        0.417
        3.33831       14.84340       18.77608        0.417
       27.25407       23.44899       13.40045       -0.834
       27.18461       23.71870       14.31624        0.417
       27.57768       22.54899       13.43922        0.417
       28.35668       21.29689       14.82806       -0.834
       29.24481       21.58559       14.61805        0.417
       28.16837       21.69778       15.67662        0.417
       20.51804       15.99970       11.56761       -0.834
       20.43485       15.34468       12.26061        0.417
       20.09897       16.78232       11.92555        0.417
       13.48263       13.05415        5.73276       -0.834
       12.72425       13.50171        5.35754        0.417
       13.64838       13.51243        6.55661        0.417
       24.68069       14.29265       11.34189       -0.834
       24.71731       15.04632       10.75293        0.417
       25.21631       13.62590       10.91201        0.417
       21.66132       22.62016       24.57899       -0.834
       21.51461       23.01430       23.71913        0.417
       21.20958       21.77731       24.53688        0.417
        9.84239        8.19526       23.13433       -0.834
        9.07061        7.63055       23.17555        0.417
       10.55668        7.60783       22.88747        0.417
       27.61006       17.24057       22.55667       -0.834
       26.70038       16.94773       22.61121        0.417
       27.68627       17.91412       23.23250        0.417
       19.07496       25.67922       15.73733       -0.834
       18.99052       25.45956       14.80951        0.417
       19.20983       26.62680       15.74830        0.417
       10.21765       14.51460       23.39632       -0.834
       10.24568       15.28627       23.96199        0.417
       10.23478       13.77291       24.00117        0.417
       23.27603        5.46127       11.07326       -0.834
       22.76342        5.90200       11.75092        0.417
       22.66311        4.84596       10.67082        0.417
        6.63753       19.19689       15.15412       -0.834